20 965
525 7 479 7 358 7 163 9 10 11 816 15 659 22
525 7 479 7 355 7 106 9 927 13
525 7 479 7 355 7 106 9 927 13
525 7 479 7 355 7 106 9 927 13
525 7 445 7 286 10
528 7 504 7 413 7 254 9 80 11 923 15 769 20
528 7 504 7 413 7 254 9 80 11 923 15 769 20
525 7 484 7 368 7 123 9 857 11 631 18
525 7 505 7 381 7 219 9 28 11 852 15 669 21
525 7 479 7 358 7 163 9 10 11 816 18
525 7 442 7 285 7 105 9 7 13
525 7 482 7 394 7 212 9 29 11 822 15 623 21
525 7 445 7 264 7 63 9 879 13
528 7 484 7 368 7 122 9 895 13
528 7 484 7 368 7 122 9 895 13
528 7 484 7 368 7 122 9 895 13
525 7 482 7 367 7 213 9 32 11 824 18
528 7 482 7 366 7 179 12
520 7 441 7 347 7 188 9 17 11 840 15 710 23
525 7 477 7 390 7 241 9 75 14 911 18 756 25
